
Gurobi 9.5.1 (linux64) logging started Sun Jul  3 11:15:57 2022

Set parameter LogFile to value "../results/logs/log_socfb-Syracuse56_46_250_2022_07_03_11_15.log"
Gurobi Optimizer version 9.5.1 build v9.5.1rc2 (linux64)
Thread count: 8 physical cores, 8 logical processors, using up to 8 threads
Optimize a model with 11023 rows, 27306 columns and 197969 nonzeros
Model fingerprint: 0x868ae193
Coefficient statistics:
  Matrix range     [1e+00, 5e+01]
  Objective range  [1e+00, 1e+00]
  Bounds range     [1e+00, 1e+00]
  RHS range        [1e+00, 2e+02]

Concurrent LP optimizer: primal simplex, dual simplex, and barrier
Showing barrier log only...

Presolve removed 3202 rows and 20509 columns
Presolve time: 0.05s
Presolved: 7821 rows, 6797 columns, 71049 nonzeros

Ordering time: 0.19s

Barrier statistics:
 AA' NZ     : 2.389e+05
 Factor NZ  : 1.767e+06 (roughly 20 MB of memory)
 Factor Ops : 1.014e+09 (less than 1 second per iteration)
 Threads    : 6

                  Objective                Residual
Iter       Primal          Dual         Primal    Dual     Compl     Time
   0   1.14651334e+04  7.85602318e+03  8.70e+04 1.25e-01  5.13e+00     0s
   1   1.12398991e+04  8.85570545e+03  3.98e+04 1.09e-01  2.33e+00     0s
   2   9.70563548e+03  1.02417673e+04  1.33e+04 4.83e-15  9.57e-01     0s
   3   8.46304841e+03  9.55971484e+03  1.85e+03 5.08e-15  1.66e-01     0s
   4   8.36254592e+03  8.86034380e+03  4.60e+02 1.13e-14  4.77e-02     0s
   5   8.32263718e+03  8.52857138e+03  1.44e+02 2.82e-15  1.64e-02     0s
   6   8.30945289e+03  8.39768610e+03  4.94e+01 1.86e-15  6.13e-03     0s
   7   8.30927786e+03  8.36904523e+03  3.18e+01 1.63e-15  3.98e-03     0s
   8   8.30959854e+03  8.35355608e+03  2.55e+01 1.33e-15  2.96e-03     0s
   9   8.31087080e+03  8.34412675e+03  1.34e+01 8.88e-16  2.01e-03     0s
  10   8.31235703e+03  8.33325807e+03  8.15e+00 1.11e-15  1.24e-03     0s
  11   8.31298806e+03  8.32712595e+03  6.71e+00 8.88e-16  8.74e-04     0s
  12   8.31436185e+03  8.32379046e+03  3.82e+00 8.88e-16  5.60e-04     0s
  13   8.31473113e+03  8.32203303e+03  3.26e+00 8.88e-16  4.42e-04     1s
  14   8.31612556e+03  8.31914979e+03  1.30e+00 1.11e-15  1.81e-04     1s
  15   8.31642204e+03  8.31820060e+03  9.84e-01 1.33e-15  1.13e-04     1s
  16   8.31662208e+03  8.31775960e+03  7.79e-01 1.11e-15  7.68e-05     1s
  17   8.31695550e+03  8.31757264e+03  4.54e-01 9.99e-16  4.26e-05     1s

Barrier performed 17 iterations in 0.59 seconds (0.52 work units)
Barrier solve interrupted - model solved by another algorithm


Solved with dual simplex
Solved in 7654 iterations and 0.59 seconds (0.75 work units)
Optimal objective  8.317436742e+03
